Version identifier: 22.1.0.0 | 2022-03-09 | 1a383f8ce
CPXPARAM_Read_DataCheck                          1
1 of 1 MIP starts provided solutions.
MIP start 'm1' defined initial solution with objective 17.0000.
Tried aggregator 3 times.
MIP Presolve eliminated 2290 rows and 651 columns.
MIP Presolve modified 70 coefficients.
Aggregator did 1759 substitutions.
Reduced MIP has 606 rows, 1840 columns, and 4315 nonzeros.
Reduced MIP has 1830 binaries, 10 generals, 0 SOSs, and 0 indicators.
Presolve time = 0.01 sec. (13.14 ticks)
Probing fixed 20 vars, tightened 0 bounds.
Probing time = 0.00 sec. (2.29 ticks)
Tried aggregator 2 times.
Detecting symmetries...
MIP Presolve eliminated 23 rows and 28 columns.
Aggregator did 7 substitutions.
Reduced MIP has 576 rows, 1805 columns, and 4200 nonzeros.
Reduced MIP has 1795 binaries, 10 generals, 0 SOSs, and 0 indicators.
Presolve time = 0.01 sec. (4.71 ticks)
Probing time = 0.00 sec. (1.85 ticks)
Clique table members: 3841.
MIP emphasis: balance optimality and feasibility.
MIP search method: dynamic search.
Parallel mode: deterministic, using up to 8 threads.
Root relaxation solution time = 0.01 sec. (7.53 ticks)

        Nodes                                         Cuts/
   Node  Left     Objective  IInf  Best Integer    Best Bound    ItCnt     Gap

*     0+    0                           17.0000        0.0000           100.00%
      0     0       10.4857   453       17.0000       10.4857      513   38.32%
      0     0        cutoff             17.0000                    527    0.00%
Elapsed time = 0.17 sec. (76.45 ticks, tree = 0.01 MB, solutions = 1)

Zero-half cuts applied:  17
Gomory fractional cuts applied:  7

Root node processing (before b&c):
  Real time             =    0.17 sec. (76.60 ticks)
Parallel b&c, 8 threads:
  Real time             =    0.00 sec. (0.00 ticks)
  Sync time (average)   =    0.00 sec.
  Wait time (average)   =    0.00 sec.
                          ------------
Total (root+branch&cut) =    0.17 sec. (76.60 ticks)
Version identifier: 22.1.0.0 | 2022-03-09 | 1a383f8ce
CPXPARAM_Read_DataCheck                          1
1 of 1 MIP starts provided solutions.
MIP start 'm1' defined initial solution with objective 17.0000.
Tried aggregator 3 times.
MIP Presolve eliminated 2290 rows and 651 columns.
MIP Presolve modified 70 coefficients.
Aggregator did 1759 substitutions.
Reduced MIP has 606 rows, 1840 columns, and 4315 nonzeros.
Reduced MIP has 1830 binaries, 10 generals, 0 SOSs, and 0 indicators.
Presolve time = 0.01 sec. (13.14 ticks)
Probing fixed 20 vars, tightened 0 bounds.
Probing time = 0.01 sec. (2.29 ticks)
Tried aggregator 2 times.
Detecting symmetries...
MIP Presolve eliminated 23 rows and 28 columns.
Aggregator did 7 substitutions.
Reduced MIP has 576 rows, 1805 columns, and 4200 nonzeros.
Reduced MIP has 1795 binaries, 10 generals, 0 SOSs, and 0 indicators.
Presolve time = 0.00 sec. (4.71 ticks)
Probing time = 0.00 sec. (1.85 ticks)
Clique table members: 3841.
MIP emphasis: balance optimality and feasibility.
MIP search method: dynamic search.
Parallel mode: deterministic, using up to 8 threads.
Root relaxation solution time = 0.02 sec. (7.53 ticks)

        Nodes                                         Cuts/
   Node  Left     Objective  IInf  Best Integer    Best Bound    ItCnt     Gap

*     0+    0                           17.0000        0.0000           100.00%
      0     0       10.4857   453       17.0000       10.4857      513   38.32%
      0     0        cutoff             17.0000                    527    0.00%
Elapsed time = 0.18 sec. (76.45 ticks, tree = 0.01 MB, solutions = 1)

Zero-half cuts applied:  17
Gomory fractional cuts applied:  7

Root node processing (before b&c):
  Real time             =    0.18 sec. (76.60 ticks)
Parallel b&c, 8 threads:
  Real time             =    0.00 sec. (0.00 ticks)
  Sync time (average)   =    0.00 sec.
  Wait time (average)   =    0.00 sec.
                          ------------
Total (root+branch&cut) =    0.18 sec. (76.60 ticks)
